(declare-fun e () String)
(declare-fun h () String)
(declare-fun b () String)
(declare-fun d () String)
(declare-fun a () String)
(declare-fun c () String)
(assert (= "aceg" (str.++ h "e" b h)))
(assert (not (= (str.++ "fdb" d e "e") (str.++ e "hf" d "bg"))))
(assert (not (= (str.++ "f" c "dgd" b) (str.++ c "a" a "g"))))

(check-sat)
